; benchmark generated from python API
(set-info :status unknown)
(declare-fun cell_1_6 () Int)
(declare-fun cell_1_8 () Int)
(declare-fun cell_2_5 () Int)
(declare-fun cell_2_7 () Int)
(declare-fun cell_3_3 () Int)
(declare-fun cell_4_4 () Int)
(declare-fun cell_5_8 () Int)
(declare-fun cell_6_1 () Int)
(declare-fun cell_7_9 () Int)
(declare-fun cell_8_2 () Int)
(declare-fun cell_9_5 () Int)
(declare-fun cell_1_1 () Int)
(declare-fun cell_2_1 () Int)
(declare-fun cell_3_1 () Int)
(declare-fun cell_4_1 () Int)
(declare-fun cell_5_1 () Int)
(declare-fun cell_7_1 () Int)
(declare-fun cell_8_1 () Int)
(declare-fun cell_9_1 () Int)
(declare-fun cell_1_2 () Int)
(declare-fun cell_2_2 () Int)
(declare-fun cell_3_2 () Int)
(declare-fun cell_4_2 () Int)
(declare-fun cell_5_2 () Int)
(declare-fun cell_6_2 () Int)
(declare-fun cell_7_2 () Int)
(declare-fun cell_9_2 () Int)
(declare-fun cell_1_3 () Int)
(declare-fun cell_2_3 () Int)
(declare-fun cell_4_3 () Int)
(declare-fun cell_5_3 () Int)
(declare-fun cell_6_3 () Int)
(declare-fun cell_7_3 () Int)
(declare-fun cell_8_3 () Int)
(declare-fun cell_9_3 () Int)
(declare-fun cell_1_4 () Int)
(declare-fun cell_2_4 () Int)
(declare-fun cell_3_4 () Int)
(declare-fun cell_5_4 () Int)
(declare-fun cell_6_4 () Int)
(declare-fun cell_7_4 () Int)
(declare-fun cell_8_4 () Int)
(declare-fun cell_9_4 () Int)
(declare-fun cell_1_5 () Int)
(declare-fun cell_3_5 () Int)
(declare-fun cell_4_5 () Int)
(declare-fun cell_5_5 () Int)
(declare-fun cell_6_5 () Int)
(declare-fun cell_7_5 () Int)
(declare-fun cell_8_5 () Int)
(declare-fun cell_2_6 () Int)
(declare-fun cell_3_6 () Int)
(declare-fun cell_4_6 () Int)
(declare-fun cell_5_6 () Int)
(declare-fun cell_6_6 () Int)
(declare-fun cell_7_6 () Int)
(declare-fun cell_8_6 () Int)
(declare-fun cell_9_6 () Int)
(declare-fun cell_1_7 () Int)
(declare-fun cell_3_7 () Int)
(declare-fun cell_4_7 () Int)
(declare-fun cell_5_7 () Int)
(declare-fun cell_6_7 () Int)
(declare-fun cell_7_7 () Int)
(declare-fun cell_8_7 () Int)
(declare-fun cell_9_7 () Int)
(declare-fun cell_2_8 () Int)
(declare-fun cell_3_8 () Int)
(declare-fun cell_4_8 () Int)
(declare-fun cell_6_8 () Int)
(declare-fun cell_7_8 () Int)
(declare-fun cell_8_8 () Int)
(declare-fun cell_9_8 () Int)
(declare-fun cell_1_9 () Int)
(declare-fun cell_2_9 () Int)
(declare-fun cell_3_9 () Int)
(declare-fun cell_4_9 () Int)
(declare-fun cell_5_9 () Int)
(declare-fun cell_6_9 () Int)
(declare-fun cell_8_9 () Int)
(declare-fun cell_9_9 () Int)
(assert
 (= cell_1_6 1))
(assert
 (= cell_1_8 2))
(assert
 (= cell_2_5 2))
(assert
 (= cell_2_7 1))
(assert
 (= cell_3_3 1))
(assert
 (= cell_4_4 1))
(assert
 (= cell_5_8 1))
(assert
 (= cell_6_1 1))
(assert
 (= cell_7_9 1))
(assert
 (= cell_8_2 1))
(assert
 (= cell_9_5 1))
(assert
 (let (($x5811 (= cell_1_1 9)))
 (let (($x3364 (= cell_1_1 8)))
 (let (($x762 (= cell_1_1 7)))
 (let (($x2323 (= cell_1_1 6)))
 (let (($x3506 (= cell_1_1 5)))
 (let (($x2941 (= cell_1_1 4)))
 (let (($x3840 (= cell_1_1 3)))
 (let (($x1338 (= cell_1_1 2)))
 (let (($x5493 (= cell_1_1 1)))
 (or $x5493 $x1338 $x3840 $x2941 $x3506 $x2323 $x762 $x3364 $x5811)))))))))))
(assert
 (let (($x5408 (= cell_2_1 9)))
 (let (($x1239 (= cell_2_1 8)))
 (let (($x1885 (= cell_2_1 7)))
 (let (($x5051 (= cell_2_1 6)))
 (let (($x6444 (= cell_2_1 5)))
 (let (($x4581 (= cell_2_1 4)))
 (let (($x3760 (= cell_2_1 3)))
 (let (($x4645 (= cell_2_1 2)))
 (let (($x5816 (= cell_2_1 1)))
 (or $x5816 $x4645 $x3760 $x4581 $x6444 $x5051 $x1885 $x1239 $x5408)))))))))))
(assert
 (let (($x827 (= cell_3_1 9)))
 (let (($x4877 (= cell_3_1 8)))
 (let (($x4374 (= cell_3_1 7)))
 (let (($x6062 (= cell_3_1 6)))
 (let (($x4334 (= cell_3_1 5)))
 (let (($x6204 (= cell_3_1 4)))
 (let (($x5889 (= cell_3_1 3)))
 (let (($x1023 (= cell_3_1 2)))
 (let (($x4242 (= cell_3_1 1)))
 (or $x4242 $x1023 $x5889 $x6204 $x4334 $x6062 $x4374 $x4877 $x827)))))))))))
(assert
 (let (($x4152 (= cell_4_1 9)))
 (let (($x5664 (= cell_4_1 8)))
 (let (($x954 (= cell_4_1 7)))
 (let (($x5374 (= cell_4_1 6)))
 (let (($x2799 (= cell_4_1 5)))
 (let (($x4101 (= cell_4_1 4)))
 (let (($x151 (= cell_4_1 3)))
 (let (($x203 (= cell_4_1 2)))
 (let (($x2481 (= cell_4_1 1)))
 (or $x2481 $x203 $x151 $x4101 $x2799 $x5374 $x954 $x5664 $x4152)))))))))))
(assert
 (let (($x4447 (= cell_5_1 9)))
 (let (($x1392 (= cell_5_1 8)))
 (let (($x3687 (= cell_5_1 7)))
 (let (($x2572 (= cell_5_1 6)))
 (let (($x4860 (= cell_5_1 5)))
 (let (($x3579 (= cell_5_1 4)))
 (let (($x777 (= cell_5_1 3)))
 (let (($x3743 (= cell_5_1 2)))
 (let (($x3879 (= cell_5_1 1)))
 (or $x3879 $x3743 $x777 $x3579 $x4860 $x2572 $x3687 $x1392 $x4447)))))))))))
(assert
 (let (($x2580 (= cell_6_1 1)))
 (or $x2580 (= cell_6_1 2) (= cell_6_1 3) (= cell_6_1 4) (= cell_6_1 5) (= cell_6_1 6) (= cell_6_1 7) (= cell_6_1 8) (= cell_6_1 9))))
(assert
 (let (($x1086 (= cell_7_1 9)))
 (let (($x1723 (= cell_7_1 8)))
 (let (($x320 (= cell_7_1 7)))
 (let (($x3301 (= cell_7_1 6)))
 (let (($x5875 (= cell_7_1 5)))
 (let (($x1532 (= cell_7_1 4)))
 (let (($x1536 (= cell_7_1 3)))
 (let (($x3792 (= cell_7_1 2)))
 (let (($x4376 (= cell_7_1 1)))
 (or $x4376 $x3792 $x1536 $x1532 $x5875 $x3301 $x320 $x1723 $x1086)))))))))))
(assert
 (let (($x34 (= cell_8_1 9)))
 (let (($x854 (= cell_8_1 8)))
 (let (($x4451 (= cell_8_1 7)))
 (let (($x5320 (= cell_8_1 6)))
 (let (($x5601 (= cell_8_1 5)))
 (let (($x1803 (= cell_8_1 4)))
 (let (($x4415 (= cell_8_1 3)))
 (let (($x2522 (= cell_8_1 2)))
 (let (($x4018 (= cell_8_1 1)))
 (or $x4018 $x2522 $x4415 $x1803 $x5601 $x5320 $x4451 $x854 $x34)))))))))))
(assert
 (let (($x5210 (= cell_9_1 9)))
 (let (($x6425 (= cell_9_1 8)))
 (let (($x896 (= cell_9_1 7)))
 (let (($x4331 (= cell_9_1 6)))
 (let (($x1451 (= cell_9_1 5)))
 (let (($x2806 (= cell_9_1 4)))
 (let (($x5975 (= cell_9_1 3)))
 (let (($x1261 (= cell_9_1 2)))
 (let (($x1737 (= cell_9_1 1)))
 (or $x1737 $x1261 $x5975 $x2806 $x1451 $x4331 $x896 $x6425 $x5210)))))))))))
(assert
 (let (($x4411 (= cell_1_2 9)))
 (let (($x3903 (= cell_1_2 8)))
 (let (($x3955 (= cell_1_2 7)))
 (let (($x374 (= cell_1_2 6)))
 (let (($x3249 (= cell_1_2 5)))
 (let (($x1665 (= cell_1_2 4)))
 (let (($x1249 (= cell_1_2 3)))
 (let (($x503 (= cell_1_2 2)))
 (let (($x618 (= cell_1_2 1)))
 (or $x618 $x503 $x1249 $x1665 $x3249 $x374 $x3955 $x3903 $x4411)))))))))))
(assert
 (let (($x5093 (= cell_2_2 9)))
 (let (($x446 (= cell_2_2 8)))
 (let (($x6585 (= cell_2_2 7)))
 (let (($x747 (= cell_2_2 6)))
 (let (($x5728 (= cell_2_2 5)))
 (let (($x3812 (= cell_2_2 4)))
 (let (($x2731 (= cell_2_2 3)))
 (let (($x3870 (= cell_2_2 2)))
 (let (($x4314 (= cell_2_2 1)))
 (or $x4314 $x3870 $x2731 $x3812 $x5728 $x747 $x6585 $x446 $x5093)))))))))))
(assert
 (let (($x1154 (= cell_3_2 9)))
 (let (($x3856 (= cell_3_2 8)))
 (let (($x4518 (= cell_3_2 7)))
 (let (($x204 (= cell_3_2 6)))
 (let (($x1677 (= cell_3_2 5)))
 (let (($x4482 (= cell_3_2 4)))
 (let (($x2523 (= cell_3_2 3)))
 (let (($x6545 (= cell_3_2 2)))
 (let (($x4834 (= cell_3_2 1)))
 (or $x4834 $x6545 $x2523 $x4482 $x1677 $x204 $x4518 $x3856 $x1154)))))))))))
(assert
 (let (($x5665 (= cell_4_2 9)))
 (let (($x740 (= cell_4_2 8)))
 (let (($x1670 (= cell_4_2 7)))
 (let (($x2784 (= cell_4_2 6)))
 (let (($x761 (= cell_4_2 5)))
 (let (($x4426 (= cell_4_2 4)))
 (let (($x3788 (= cell_4_2 3)))
 (let (($x1754 (= cell_4_2 2)))
 (let (($x4658 (= cell_4_2 1)))
 (or $x4658 $x1754 $x3788 $x4426 $x761 $x2784 $x1670 $x740 $x5665)))))))))))
(assert
 (let (($x5874 (= cell_5_2 9)))
 (let (($x3815 (= cell_5_2 8)))
 (let (($x1289 (= cell_5_2 7)))
 (let (($x6048 (= cell_5_2 6)))
 (let (($x1509 (= cell_5_2 5)))
 (let (($x1072 (= cell_5_2 4)))
 (let (($x1788 (= cell_5_2 3)))
 (let (($x4309 (= cell_5_2 2)))
 (let (($x4442 (= cell_5_2 1)))
 (or $x4442 $x4309 $x1788 $x1072 $x1509 $x6048 $x1289 $x3815 $x5874)))))))))))
(assert
 (let (($x4025 (= cell_6_2 9)))
 (let (($x3568 (= cell_6_2 8)))
 (let (($x4023 (= cell_6_2 7)))
 (let (($x3795 (= cell_6_2 6)))
 (let (($x1658 (= cell_6_2 5)))
 (let (($x665 (= cell_6_2 4)))
 (let (($x4436 (= cell_6_2 3)))
 (let (($x1849 (= cell_6_2 2)))
 (let (($x6047 (= cell_6_2 1)))
 (or $x6047 $x1849 $x4436 $x665 $x1658 $x3795 $x4023 $x3568 $x4025)))))))))))
(assert
 (let (($x1096 (= cell_7_2 9)))
 (let (($x4249 (= cell_7_2 8)))
 (let (($x4778 (= cell_7_2 7)))
 (let (($x4815 (= cell_7_2 6)))
 (let (($x1171 (= cell_7_2 5)))
 (let (($x1279 (= cell_7_2 4)))
 (let (($x1611 (= cell_7_2 3)))
 (let (($x540 (= cell_7_2 2)))
 (let (($x6060 (= cell_7_2 1)))
 (or $x6060 $x540 $x1611 $x1279 $x1171 $x4815 $x4778 $x4249 $x1096)))))))))))
(assert
 (let (($x611 (= cell_8_2 1)))
 (or $x611 (= cell_8_2 2) (= cell_8_2 3) (= cell_8_2 4) (= cell_8_2 5) (= cell_8_2 6) (= cell_8_2 7) (= cell_8_2 8) (= cell_8_2 9))))
(assert
 (let (($x127 (= cell_9_2 9)))
 (let (($x4388 (= cell_9_2 8)))
 (let (($x5435 (= cell_9_2 7)))
 (let (($x7555 (= cell_9_2 6)))
 (let (($x2725 (= cell_9_2 5)))
 (let (($x4532 (= cell_9_2 4)))
 (let (($x5149 (= cell_9_2 3)))
 (let (($x5697 (= cell_9_2 2)))
 (let (($x2331 (= cell_9_2 1)))
 (or $x2331 $x5697 $x5149 $x4532 $x2725 $x7555 $x5435 $x4388 $x127)))))))))))
(assert
 (let (($x4015 (= cell_1_3 9)))
 (let (($x373 (= cell_1_3 8)))
 (let (($x5913 (= cell_1_3 7)))
 (let (($x4096 (= cell_1_3 6)))
 (let (($x1360 (= cell_1_3 5)))
 (let (($x9 (= cell_1_3 4)))
 (let (($x825 (= cell_1_3 3)))
 (let (($x440 (= cell_1_3 2)))
 (let (($x5324 (= cell_1_3 1)))
 (or $x5324 $x440 $x825 $x9 $x1360 $x4096 $x5913 $x373 $x4015)))))))))))
(assert
 (let (($x1259 (= cell_2_3 9)))
 (let (($x1502 (= cell_2_3 8)))
 (let (($x4905 (= cell_2_3 7)))
 (let (($x4773 (= cell_2_3 6)))
 (let (($x4983 (= cell_2_3 5)))
 (let (($x1021 (= cell_2_3 4)))
 (let (($x4790 (= cell_2_3 3)))
 (let (($x1570 (= cell_2_3 2)))
 (let (($x1056 (= cell_2_3 1)))
 (or $x1056 $x1570 $x4790 $x1021 $x4983 $x4773 $x4905 $x1502 $x1259)))))))))))
(assert
 (let (($x4358 (= cell_3_3 1)))
 (or $x4358 (= cell_3_3 2) (= cell_3_3 3) (= cell_3_3 4) (= cell_3_3 5) (= cell_3_3 6) (= cell_3_3 7) (= cell_3_3 8) (= cell_3_3 9))))
(assert
 (let (($x536 (= cell_4_3 9)))
 (let (($x4409 (= cell_4_3 8)))
 (let (($x4972 (= cell_4_3 7)))
 (let (($x405 (= cell_4_3 6)))
 (let (($x3478 (= cell_4_3 5)))
 (let (($x3995 (= cell_4_3 4)))
 (let (($x5556 (= cell_4_3 3)))
 (let (($x4112 (= cell_4_3 2)))
 (let (($x1336 (= cell_4_3 1)))
 (or $x1336 $x4112 $x5556 $x3995 $x3478 $x405 $x4972 $x4409 $x536)))))))))))
(assert
 (let (($x3010 (= cell_5_3 9)))
 (let (($x5494 (= cell_5_3 8)))
 (let (($x3495 (= cell_5_3 7)))
 (let (($x6322 (= cell_5_3 6)))
 (let (($x4539 (= cell_5_3 5)))
 (let (($x1013 (= cell_5_3 4)))
 (let (($x664 (= cell_5_3 3)))
 (let (($x5682 (= cell_5_3 2)))
 (let (($x3975 (= cell_5_3 1)))
 (or $x3975 $x5682 $x664 $x1013 $x4539 $x6322 $x3495 $x5494 $x3010)))))))))))
(assert
 (let (($x3837 (= cell_6_3 2)))
 (let (($x6360 (= cell_6_3 1)))
 (or $x6360 $x3837 (= cell_6_3 3) (= cell_6_3 4) (= cell_6_3 5) (= cell_6_3 6) (= cell_6_3 7) (= cell_6_3 8) (= cell_6_3 9)))))
(assert
 (let (($x4738 (= cell_7_3 9)))
 (let (($x1387 (= cell_7_3 8)))
 (let (($x6582 (= cell_7_3 7)))
 (let (($x3916 (= cell_7_3 6)))
 (let (($x4214 (= cell_7_3 5)))
 (let (($x2125 (= cell_7_3 4)))
 (let (($x4433 (= cell_7_3 3)))
 (let (($x1293 (= cell_7_3 2)))
 (let (($x5562 (= cell_7_3 1)))
 (or $x5562 $x1293 $x4433 $x2125 $x4214 $x3916 $x6582 $x1387 $x4738)))))))))))
(assert
 (let (($x2592 (= cell_8_3 1)))
 (or $x2592 (= cell_8_3 2) (= cell_8_3 3) (= cell_8_3 4) (= cell_8_3 5) (= cell_8_3 6) (= cell_8_3 7) (= cell_8_3 8) (= cell_8_3 9))))
(assert
 (let (($x209 (= cell_9_3 9)))
 (let (($x3594 (= cell_9_3 8)))
 (let (($x2691 (= cell_9_3 7)))
 (let (($x2953 (= cell_9_3 6)))
 (let (($x2818 (= cell_9_3 5)))
 (let (($x3199 (= cell_9_3 4)))
 (let (($x3627 (= cell_9_3 3)))
 (let (($x103 (= cell_9_3 2)))
 (let (($x3082 (= cell_9_3 1)))
 (or $x3082 $x103 $x3627 $x3199 $x2818 $x2953 $x2691 $x3594 $x209)))))))))))
(assert
 (let (($x3983 (= cell_1_4 9)))
 (let (($x2238 (= cell_1_4 8)))
 (let (($x5696 (= cell_1_4 7)))
 (let (($x5805 (= cell_1_4 6)))
 (let (($x668 (= cell_1_4 5)))
 (let (($x465 (= cell_1_4 4)))
 (let (($x5916 (= cell_1_4 3)))
 (let (($x3911 (= cell_1_4 2)))
 (let (($x3994 (= cell_1_4 1)))
 (or $x3994 $x3911 $x5916 $x465 $x668 $x5805 $x5696 $x2238 $x3983)))))))))))
(assert
 (let (($x117 (= cell_2_4 9)))
 (let (($x1724 (= cell_2_4 8)))
 (let (($x50 (= cell_2_4 7)))
 (let (($x3832 (= cell_2_4 6)))
 (let (($x4765 (= cell_2_4 5)))
 (let (($x2730 (= cell_2_4 4)))
 (let (($x5216 (= cell_2_4 3)))
 (let (($x2113 (= cell_2_4 2)))
 (let (($x2092 (= cell_2_4 1)))
 (or $x2092 $x2113 $x5216 $x2730 $x4765 $x3832 $x50 $x1724 $x117)))))))))))
(assert
 (let (($x460 (= cell_3_4 9)))
 (let (($x1411 (= cell_3_4 8)))
 (let (($x5545 (= cell_3_4 7)))
 (let (($x3472 (= cell_3_4 6)))
 (let (($x1045 (= cell_3_4 5)))
 (let (($x1905 (= cell_3_4 4)))
 (let (($x5867 (= cell_3_4 3)))
 (let (($x3411 (= cell_3_4 2)))
 (let (($x3444 (= cell_3_4 1)))
 (or $x3444 $x3411 $x5867 $x1905 $x1045 $x3472 $x5545 $x1411 $x460)))))))))))
(assert
 (let (($x941 (= cell_4_4 1)))
 (or $x941 (= cell_4_4 2) (= cell_4_4 3) (= cell_4_4 4) (= cell_4_4 5) (= cell_4_4 6) (= cell_4_4 7) (= cell_4_4 8) (= cell_4_4 9))))
(assert
 (let (($x597 (= cell_5_4 9)))
 (let (($x5659 (= cell_5_4 8)))
 (let (($x30 (= cell_5_4 7)))
 (let (($x2347 (= cell_5_4 6)))
 (let (($x4041 (= cell_5_4 5)))
 (let (($x238 (= cell_5_4 4)))
 (let (($x3655 (= cell_5_4 3)))
 (let (($x754 (= cell_5_4 2)))
 (let (($x106 (= cell_5_4 1)))
 (or $x106 $x754 $x3655 $x238 $x4041 $x2347 $x30 $x5659 $x597)))))))))))
(assert
 (let (($x1798 (= cell_6_4 1)))
 (or $x1798 (= cell_6_4 2) (= cell_6_4 3) (= cell_6_4 4) (= cell_6_4 5) (= cell_6_4 6) (= cell_6_4 7) (= cell_6_4 8) (= cell_6_4 9))))
(assert
 (let (($x4831 (= cell_7_4 9)))
 (let (($x575 (= cell_7_4 8)))
 (let (($x1193 (= cell_7_4 7)))
 (let (($x2940 (= cell_7_4 6)))
 (let (($x2588 (= cell_7_4 5)))
 (let (($x2843 (= cell_7_4 4)))
 (let (($x230 (= cell_7_4 3)))
 (let (($x1930 (= cell_7_4 2)))
 (let (($x1986 (= cell_7_4 1)))
 (or $x1986 $x1930 $x230 $x2843 $x2588 $x2940 $x1193 $x575 $x4831)))))))))))
(assert
 (let (($x1285 (= cell_8_4 9)))
 (let (($x4385 (= cell_8_4 8)))
 (let (($x4640 (= cell_8_4 7)))
 (let (($x1347 (= cell_8_4 6)))
 (let (($x4055 (= cell_8_4 5)))
 (let (($x4195 (= cell_8_4 4)))
 (let (($x3644 (= cell_8_4 3)))
 (let (($x3950 (= cell_8_4 2)))
 (let (($x3324 (= cell_8_4 1)))
 (or $x3324 $x3950 $x3644 $x4195 $x4055 $x1347 $x4640 $x4385 $x1285)))))))))))
(assert
 (let (($x3302 (= cell_9_4 9)))
 (let (($x2952 (= cell_9_4 8)))
 (let (($x3662 (= cell_9_4 7)))
 (let (($x2590 (= cell_9_4 6)))
 (let (($x3691 (= cell_9_4 5)))
 (let (($x5213 (= cell_9_4 4)))
 (let (($x1763 (= cell_9_4 3)))
 (let (($x5522 (= cell_9_4 2)))
 (let (($x4136 (= cell_9_4 1)))
 (or $x4136 $x5522 $x1763 $x5213 $x3691 $x2590 $x3662 $x2952 $x3302)))))))))))
(assert
 (let (($x3601 (= cell_1_5 9)))
 (let (($x1796 (= cell_1_5 8)))
 (let (($x4405 (= cell_1_5 7)))
 (let (($x772 (= cell_1_5 6)))
 (let (($x1447 (= cell_1_5 5)))
 (let (($x2145 (= cell_1_5 4)))
 (let (($x656 (= cell_1_5 3)))
 (let (($x1092 (= cell_1_5 2)))
 (let (($x2034 (= cell_1_5 1)))
 (or $x2034 $x1092 $x656 $x2145 $x1447 $x772 $x4405 $x1796 $x3601)))))))))))
(assert
 (let (($x2646 (= cell_2_5 2)))
 (or (= cell_2_5 1) $x2646 (= cell_2_5 3) (= cell_2_5 4) (= cell_2_5 5) (= cell_2_5 6) (= cell_2_5 7) (= cell_2_5 8) (= cell_2_5 9))))
(assert
 (let (($x5872 (= cell_3_5 9)))
 (let (($x4140 (= cell_3_5 8)))
 (let (($x4901 (= cell_3_5 7)))
 (let (($x5561 (= cell_3_5 6)))
 (let (($x4529 (= cell_3_5 5)))
 (let (($x2263 (= cell_3_5 4)))
 (let (($x6328 (= cell_3_5 3)))
 (let (($x3536 (= cell_3_5 2)))
 (let (($x1717 (= cell_3_5 1)))
 (or $x1717 $x3536 $x6328 $x2263 $x4529 $x5561 $x4901 $x4140 $x5872)))))))))))
(assert
 (let (($x5731 (= cell_4_5 9)))
 (let (($x4744 (= cell_4_5 8)))
 (let (($x3580 (= cell_4_5 7)))
 (let (($x2396 (= cell_4_5 6)))
 (let (($x4548 (= cell_4_5 5)))
 (let (($x994 (= cell_4_5 4)))
 (let (($x1243 (= cell_4_5 3)))
 (let (($x1770 (= cell_4_5 2)))
 (let (($x2243 (= cell_4_5 1)))
 (or $x2243 $x1770 $x1243 $x994 $x4548 $x2396 $x3580 $x4744 $x5731)))))))))))
(assert
 (let (($x2989 (= cell_5_5 9)))
 (let (($x6447 (= cell_5_5 8)))
 (let (($x1305 (= cell_5_5 7)))
 (let (($x2413 (= cell_5_5 6)))
 (let (($x6303 (= cell_5_5 5)))
 (let (($x6067 (= cell_5_5 4)))
 (let (($x3606 (= cell_5_5 3)))
 (let (($x2290 (= cell_5_5 2)))
 (let (($x3907 (= cell_5_5 1)))
 (or $x3907 $x2290 $x3606 $x6067 $x6303 $x2413 $x1305 $x6447 $x2989)))))))))))
(assert
 (let (($x4087 (= cell_6_5 9)))
 (let (($x1834 (= cell_6_5 8)))
 (let (($x5183 (= cell_6_5 7)))
 (let (($x2054 (= cell_6_5 6)))
 (let (($x3045 (= cell_6_5 5)))
 (let (($x576 (= cell_6_5 4)))
 (let (($x2547 (= cell_6_5 3)))
 (let (($x6165 (= cell_6_5 2)))
 (let (($x3515 (= cell_6_5 1)))
 (or $x3515 $x6165 $x2547 $x576 $x3045 $x2054 $x5183 $x1834 $x4087)))))))))))
(assert
 (let (($x1888 (= cell_7_5 9)))
 (let (($x1119 (= cell_7_5 8)))
 (let (($x1114 (= cell_7_5 7)))
 (let (($x1924 (= cell_7_5 6)))
 (let (($x516 (= cell_7_5 5)))
 (let (($x4145 (= cell_7_5 4)))
 (let (($x37 (= cell_7_5 3)))
 (let (($x1902 (= cell_7_5 2)))
 (let (($x4404 (= cell_7_5 1)))
 (or $x4404 $x1902 $x37 $x4145 $x516 $x1924 $x1114 $x1119 $x1888)))))))))))
(assert
 (let (($x4493 (= cell_8_5 9)))
 (let (($x1230 (= cell_8_5 8)))
 (let (($x799 (= cell_8_5 7)))
 (let (($x5484 (= cell_8_5 6)))
 (let (($x5691 (= cell_8_5 5)))
 (let (($x5058 (= cell_8_5 4)))
 (let (($x5606 (= cell_8_5 3)))
 (let (($x3744 (= cell_8_5 2)))
 (let (($x4166 (= cell_8_5 1)))
 (or $x4166 $x3744 $x5606 $x5058 $x5691 $x5484 $x799 $x1230 $x4493)))))))))))
(assert
 (let (($x4232 (= cell_9_5 1)))
 (or $x4232 (= cell_9_5 2) (= cell_9_5 3) (= cell_9_5 4) (= cell_9_5 5) (= cell_9_5 6) (= cell_9_5 7) (= cell_9_5 8) (= cell_9_5 9))))
(assert
 (let (($x1910 (= cell_1_6 1)))
 (or $x1910 (= cell_1_6 2) (= cell_1_6 3) (= cell_1_6 4) (= cell_1_6 5) (= cell_1_6 6) (= cell_1_6 7) (= cell_1_6 8) (= cell_1_6 9))))
(assert
 (let (($x4155 (= cell_2_6 9)))
 (let (($x1837 (= cell_2_6 8)))
 (let (($x5948 (= cell_2_6 7)))
 (let (($x4670 (= cell_2_6 6)))
 (let (($x5570 (= cell_2_6 5)))
 (let (($x1675 (= cell_2_6 4)))
 (let (($x3632 (= cell_2_6 3)))
 (let (($x5168 (= cell_2_6 2)))
 (let (($x2443 (= cell_2_6 1)))
 (or $x2443 $x5168 $x3632 $x1675 $x5570 $x4670 $x5948 $x1837 $x4155)))))))))))
(assert
 (let (($x32 (= cell_3_6 2)))
 (let (($x147 (= cell_3_6 1)))
 (or $x147 $x32 (= cell_3_6 3) (= cell_3_6 4) (= cell_3_6 5) (= cell_3_6 6) (= cell_3_6 7) (= cell_3_6 8) (= cell_3_6 9)))))
(assert
 (let (($x15 (= cell_4_6 1)))
 (or $x15 (= cell_4_6 2) (= cell_4_6 3) (= cell_4_6 4) (= cell_4_6 5) (= cell_4_6 6) (= cell_4_6 7) (= cell_4_6 8) (= cell_4_6 9))))
(assert
 (let (($x5349 (= cell_5_6 9)))
 (let (($x492 (= cell_5_6 8)))
 (let (($x2821 (= cell_5_6 7)))
 (let (($x5635 (= cell_5_6 6)))
 (let (($x3714 (= cell_5_6 5)))
 (let (($x4609 (= cell_5_6 4)))
 (let (($x4121 (= cell_5_6 3)))
 (let (($x4151 (= cell_5_6 2)))
 (let (($x1126 (= cell_5_6 1)))
 (or $x1126 $x4151 $x4121 $x4609 $x3714 $x5635 $x2821 $x492 $x5349)))))))))))
(assert
 (let (($x1899 (= cell_6_6 1)))
 (or $x1899 (= cell_6_6 2) (= cell_6_6 3) (= cell_6_6 4) (= cell_6_6 5) (= cell_6_6 6) (= cell_6_6 7) (= cell_6_6 8) (= cell_6_6 9))))
(assert
 (let (($x4942 (= cell_7_6 9)))
 (let (($x4522 (= cell_7_6 8)))
 (let (($x4239 (= cell_7_6 7)))
 (let (($x5569 (= cell_7_6 6)))
 (let (($x5174 (= cell_7_6 5)))
 (let (($x5598 (= cell_7_6 4)))
 (let (($x6061 (= cell_7_6 3)))
 (let (($x4316 (= cell_7_6 2)))
 (let (($x4508 (= cell_7_6 1)))
 (or $x4508 $x4316 $x6061 $x5598 $x5174 $x5569 $x4239 $x4522 $x4942)))))))))))
(assert
 (let (($x5462 (= cell_8_6 9)))
 (let (($x6185 (= cell_8_6 8)))
 (let (($x4130 (= cell_8_6 7)))
 (let (($x4425 (= cell_8_6 6)))
 (let (($x5123 (= cell_8_6 5)))
 (let (($x1113 (= cell_8_6 4)))
 (let (($x2064 (= cell_8_6 3)))
 (let (($x5299 (= cell_8_6 2)))
 (let (($x4063 (= cell_8_6 1)))
 (or $x4063 $x5299 $x2064 $x1113 $x5123 $x4425 $x4130 $x6185 $x5462)))))))))))
(assert
 (let (($x3675 (= cell_9_6 1)))
 (or $x3675 (= cell_9_6 2) (= cell_9_6 3) (= cell_9_6 4) (= cell_9_6 5) (= cell_9_6 6) (= cell_9_6 7) (= cell_9_6 8) (= cell_9_6 9))))
(assert
 (let (($x532 (= cell_1_7 9)))
 (let (($x4620 (= cell_1_7 8)))
 (let (($x5178 (= cell_1_7 7)))
 (let (($x980 (= cell_1_7 6)))
 (let (($x131 (= cell_1_7 5)))
 (let (($x5879 (= cell_1_7 4)))
 (let (($x1784 (= cell_1_7 3)))
 (let (($x1030 (= cell_1_7 2)))
 (let (($x4260 (= cell_1_7 1)))
 (or $x4260 $x1030 $x1784 $x5879 $x131 $x980 $x5178 $x4620 $x532)))))))))))
(assert
 (let (($x3991 (= cell_2_7 1)))
 (or $x3991 (= cell_2_7 2) (= cell_2_7 3) (= cell_2_7 4) (= cell_2_7 5) (= cell_2_7 6) (= cell_2_7 7) (= cell_2_7 8) (= cell_2_7 9))))
(assert
 (let (($x6795 (= cell_3_7 2)))
 (let (($x5071 (= cell_3_7 1)))
 (or $x5071 $x6795 (= cell_3_7 3) (= cell_3_7 4) (= cell_3_7 5) (= cell_3_7 6) (= cell_3_7 7) (= cell_3_7 8) (= cell_3_7 9)))))
(assert
 (let (($x4977 (= cell_4_7 9)))
 (let (($x3184 (= cell_4_7 8)))
 (let (($x6540 (= cell_4_7 7)))
 (let (($x771 (= cell_4_7 6)))
 (let (($x809 (= cell_4_7 5)))
 (let (($x4125 (= cell_4_7 4)))
 (let (($x4984 (= cell_4_7 3)))
 (let (($x257 (= cell_4_7 2)))
 (let (($x3274 (= cell_4_7 1)))
 (or $x3274 $x257 $x4984 $x4125 $x809 $x771 $x6540 $x3184 $x4977)))))))))))
(assert
 (let (($x3997 (= cell_5_7 9)))
 (let (($x3764 (= cell_5_7 8)))
 (let (($x3672 (= cell_5_7 7)))
 (let (($x1815 (= cell_5_7 6)))
 (let (($x2858 (= cell_5_7 5)))
 (let (($x1663 (= cell_5_7 4)))
 (let (($x3896 (= cell_5_7 3)))
 (let (($x364 (= cell_5_7 2)))
 (let (($x4248 (= cell_5_7 1)))
 (or $x4248 $x364 $x3896 $x1663 $x2858 $x1815 $x3672 $x3764 $x3997)))))))))))
(assert
 (let (($x715 (= cell_6_7 1)))
 (or $x715 (= cell_6_7 2) (= cell_6_7 3) (= cell_6_7 4) (= cell_6_7 5) (= cell_6_7 6) (= cell_6_7 7) (= cell_6_7 8) (= cell_6_7 9))))
(assert
 (let (($x4045 (= cell_7_7 9)))
 (let (($x4586 (= cell_7_7 8)))
 (let (($x872 (= cell_7_7 7)))
 (let (($x3613 (= cell_7_7 6)))
 (let (($x5525 (= cell_7_7 5)))
 (let (($x4090 (= cell_7_7 4)))
 (let (($x2262 (= cell_7_7 3)))
 (let (($x2013 (= cell_7_7 2)))
 (let (($x6356 (= cell_7_7 1)))
 (or $x6356 $x2013 $x2262 $x4090 $x5525 $x3613 $x872 $x4586 $x4045)))))))))))
(assert
 (let (($x3966 (= cell_8_7 1)))
 (or $x3966 (= cell_8_7 2) (= cell_8_7 3) (= cell_8_7 4) (= cell_8_7 5) (= cell_8_7 6) (= cell_8_7 7) (= cell_8_7 8) (= cell_8_7 9))))
(assert
 (let (($x4724 (= cell_9_7 1)))
 (or $x4724 (= cell_9_7 2) (= cell_9_7 3) (= cell_9_7 4) (= cell_9_7 5) (= cell_9_7 6) (= cell_9_7 7) (= cell_9_7 8) (= cell_9_7 9))))
(assert
 (let (($x1942 (= cell_1_8 2)))
 (or (= cell_1_8 1) $x1942 (= cell_1_8 3) (= cell_1_8 4) (= cell_1_8 5) (= cell_1_8 6) (= cell_1_8 7) (= cell_1_8 8) (= cell_1_8 9))))
(assert
 (let (($x558 (= cell_2_8 9)))
 (let (($x5984 (= cell_2_8 8)))
 (let (($x4491 (= cell_2_8 7)))
 (let (($x4676 (= cell_2_8 6)))
 (let (($x135 (= cell_2_8 5)))
 (let (($x6028 (= cell_2_8 4)))
 (let (($x1402 (= cell_2_8 3)))
 (let (($x3770 (= cell_2_8 2)))
 (let (($x3880 (= cell_2_8 1)))
 (or $x3880 $x3770 $x1402 $x6028 $x135 $x4676 $x4491 $x5984 $x558)))))))))))
(assert
 (let (($x4608 (= cell_3_8 9)))
 (let (($x4839 (= cell_3_8 8)))
 (let (($x3569 (= cell_3_8 7)))
 (let (($x3779 (= cell_3_8 6)))
 (let (($x1977 (= cell_3_8 5)))
 (let (($x4857 (= cell_3_8 4)))
 (let (($x5918 (= cell_3_8 3)))
 (let (($x2536 (= cell_3_8 2)))
 (let (($x196 (= cell_3_8 1)))
 (or $x196 $x2536 $x5918 $x4857 $x1977 $x3779 $x3569 $x4839 $x4608)))))))))))
(assert
 (let (($x5404 (= cell_4_8 9)))
 (let (($x806 (= cell_4_8 8)))
 (let (($x1354 (= cell_4_8 7)))
 (let (($x769 (= cell_4_8 6)))
 (let (($x51 (= cell_4_8 5)))
 (let (($x3004 (= cell_4_8 4)))
 (let (($x146 (= cell_4_8 3)))
 (let (($x2381 (= cell_4_8 2)))
 (let (($x2593 (= cell_4_8 1)))
 (or $x2593 $x2381 $x146 $x3004 $x51 $x769 $x1354 $x806 $x5404)))))))))))
(assert
 (let (($x4074 (= cell_5_8 1)))
 (or $x4074 (= cell_5_8 2) (= cell_5_8 3) (= cell_5_8 4) (= cell_5_8 5) (= cell_5_8 6) (= cell_5_8 7) (= cell_5_8 8) (= cell_5_8 9))))
(assert
 (let (($x3982 (= cell_6_8 2)))
 (let (($x4000 (= cell_6_8 1)))
 (or $x4000 $x3982 (= cell_6_8 3) (= cell_6_8 4) (= cell_6_8 5) (= cell_6_8 6) (= cell_6_8 7) (= cell_6_8 8) (= cell_6_8 9)))))
(assert
 (let (($x4497 (= cell_7_8 9)))
 (let (($x4071 (= cell_7_8 8)))
 (let (($x2194 (= cell_7_8 7)))
 (let (($x5364 (= cell_7_8 6)))
 (let (($x4006 (= cell_7_8 5)))
 (let (($x3470 (= cell_7_8 4)))
 (let (($x2121 (= cell_7_8 3)))
 (let (($x3264 (= cell_7_8 2)))
 (let (($x4267 (= cell_7_8 1)))
 (or $x4267 $x3264 $x2121 $x3470 $x4006 $x5364 $x2194 $x4071 $x4497)))))))))))
(assert
 (let (($x3719 (= cell_8_8 2)))
 (let (($x7797 (= cell_8_8 1)))
 (or $x7797 $x3719 (= cell_8_8 3) (= cell_8_8 4) (= cell_8_8 5) (= cell_8_8 6) (= cell_8_8 7) (= cell_8_8 8) (= cell_8_8 9)))))
(assert
 (let (($x277 (= cell_9_8 2)))
 (let (($x653 (= cell_9_8 1)))
 (or $x653 $x277 (= cell_9_8 3) (= cell_9_8 4) (= cell_9_8 5) (= cell_9_8 6) (= cell_9_8 7) (= cell_9_8 8) (= cell_9_8 9)))))
(assert
 (let (($x2827 (= cell_1_9 9)))
 (let (($x2773 (= cell_1_9 8)))
 (let (($x1228 (= cell_1_9 7)))
 (let (($x788 (= cell_1_9 6)))
 (let (($x673 (= cell_1_9 5)))
 (let (($x5016 (= cell_1_9 4)))
 (let (($x9432 (= cell_1_9 3)))
 (let (($x3340 (= cell_1_9 2)))
 (let (($x6139 (= cell_1_9 1)))
 (or $x6139 $x3340 $x9432 $x5016 $x673 $x788 $x1228 $x2773 $x2827)))))))))))
(assert
 (let (($x5645 (= cell_2_9 9)))
 (let (($x5172 (= cell_2_9 8)))
 (let (($x1046 (= cell_2_9 7)))
 (let (($x5318 (= cell_2_9 6)))
 (let (($x4663 (= cell_2_9 5)))
 (let (($x4085 (= cell_2_9 4)))
 (let (($x5405 (= cell_2_9 3)))
 (let (($x4307 (= cell_2_9 2)))
 (let (($x4832 (= cell_2_9 1)))
 (or $x4832 $x4307 $x5405 $x4085 $x4663 $x5318 $x1046 $x5172 $x5645)))))))))))
(assert
 (let (($x973 (= cell_3_9 9)))
 (let (($x5548 (= cell_3_9 8)))
 (let (($x5271 (= cell_3_9 7)))
 (let (($x5521 (= cell_3_9 6)))
 (let (($x4623 (= cell_3_9 5)))
 (let (($x376 (= cell_3_9 4)))
 (let (($x68 (= cell_3_9 3)))
 (let (($x4394 (= cell_3_9 2)))
 (let (($x3777 (= cell_3_9 1)))
 (or $x3777 $x4394 $x68 $x376 $x4623 $x5521 $x5271 $x5548 $x973)))))))))))
(assert
 (let (($x4850 (= cell_4_9 9)))
 (let (($x1873 (= cell_4_9 8)))
 (let (($x5951 (= cell_4_9 7)))
 (let (($x5842 (= cell_4_9 6)))
 (let (($x3479 (= cell_4_9 5)))
 (let (($x3404 (= cell_4_9 4)))
 (let (($x500 (= cell_4_9 3)))
 (let (($x4366 (= cell_4_9 2)))
 (let (($x9474 (= cell_4_9 1)))
 (or $x9474 $x4366 $x500 $x3404 $x3479 $x5842 $x5951 $x1873 $x4850)))))))))))
(assert
 (let (($x5348 (= cell_5_9 9)))
 (let (($x3474 (= cell_5_9 8)))
 (let (($x4359 (= cell_5_9 7)))
 (let (($x359 (= cell_5_9 6)))
 (let (($x5782 (= cell_5_9 5)))
 (let (($x4572 (= cell_5_9 4)))
 (let (($x3064 (= cell_5_9 3)))
 (let (($x3289 (= cell_5_9 2)))
 (let (($x5900 (= cell_5_9 1)))
 (or $x5900 $x3289 $x3064 $x4572 $x5782 $x359 $x4359 $x3474 $x5348)))))))))))
(assert
 (let (($x926 (= cell_6_9 9)))
 (let (($x3673 (= cell_6_9 8)))
 (let (($x2201 (= cell_6_9 7)))
 (let (($x2404 (= cell_6_9 6)))
 (let (($x5302 (= cell_6_9 5)))
 (let (($x1823 (= cell_6_9 4)))
 (let (($x3518 (= cell_6_9 3)))
 (let (($x4122 (= cell_6_9 2)))
 (let (($x5498 (= cell_6_9 1)))
 (or $x5498 $x4122 $x3518 $x1823 $x5302 $x2404 $x2201 $x3673 $x926)))))))))))
(assert
 (let (($x5344 (= cell_7_9 1)))
 (or $x5344 (= cell_7_9 2) (= cell_7_9 3) (= cell_7_9 4) (= cell_7_9 5) (= cell_7_9 6) (= cell_7_9 7) (= cell_7_9 8) (= cell_7_9 9))))
(assert
 (let (($x3946 (= cell_8_9 1)))
 (or $x3946 (= cell_8_9 2) (= cell_8_9 3) (= cell_8_9 4) (= cell_8_9 5) (= cell_8_9 6) (= cell_8_9 7) (= cell_8_9 8) (= cell_8_9 9))))
(assert
 (let (($x2841 (= cell_9_9 1)))
 (or $x2841 (= cell_9_9 2) (= cell_9_9 3) (= cell_9_9 4) (= cell_9_9 5) (= cell_9_9 6) (= cell_9_9 7) (= cell_9_9 8) (= cell_9_9 9))))
(assert
 (and (distinct cell_1_1 cell_1_2 cell_1_3 cell_1_4 cell_1_5 cell_1_6 cell_1_7 cell_1_8 cell_1_9) true))
(assert
 (and (distinct cell_2_1 cell_2_2 cell_2_3 cell_2_4 cell_2_5 cell_2_6 cell_2_7 cell_2_8 cell_2_9) true))
(assert
 (and (distinct cell_3_1 cell_3_2 cell_3_3 cell_3_4 cell_3_5 cell_3_6 cell_3_7 cell_3_8 cell_3_9) true))
(assert
 (and (distinct cell_4_1 cell_4_2 cell_4_3 cell_4_4 cell_4_5 cell_4_6 cell_4_7 cell_4_8 cell_4_9) true))
(assert
 (and (distinct cell_5_1 cell_5_2 cell_5_3 cell_5_4 cell_5_5 cell_5_6 cell_5_7 cell_5_8 cell_5_9) true))
(assert
 (and (distinct cell_6_1 cell_6_2 cell_6_3 cell_6_4 cell_6_5 cell_6_6 cell_6_7 cell_6_8 cell_6_9) true))
(assert
 (and (distinct cell_7_1 cell_7_2 cell_7_3 cell_7_4 cell_7_5 cell_7_6 cell_7_7 cell_7_8 cell_7_9) true))
(assert
 (and (distinct cell_8_1 cell_8_2 cell_8_3 cell_8_4 cell_8_5 cell_8_6 cell_8_7 cell_8_8 cell_8_9) true))
(assert
 (and (distinct cell_9_1 cell_9_2 cell_9_3 cell_9_4 cell_9_5 cell_9_6 cell_9_7 cell_9_8 cell_9_9) true))
(assert
 (and (distinct cell_1_1 cell_2_1 cell_3_1 cell_4_1 cell_5_1 cell_6_1 cell_7_1 cell_8_1 cell_9_1) true))
(assert
 (and (distinct cell_1_2 cell_2_2 cell_3_2 cell_4_2 cell_5_2 cell_6_2 cell_7_2 cell_8_2 cell_9_2) true))
(assert
 (and (distinct cell_1_3 cell_2_3 cell_3_3 cell_4_3 cell_5_3 cell_6_3 cell_7_3 cell_8_3 cell_9_3) true))
(assert
 (and (distinct cell_1_4 cell_2_4 cell_3_4 cell_4_4 cell_5_4 cell_6_4 cell_7_4 cell_8_4 cell_9_4) true))
(assert
 (and (distinct cell_1_5 cell_2_5 cell_3_5 cell_4_5 cell_5_5 cell_6_5 cell_7_5 cell_8_5 cell_9_5) true))
(assert
 (and (distinct cell_1_6 cell_2_6 cell_3_6 cell_4_6 cell_5_6 cell_6_6 cell_7_6 cell_8_6 cell_9_6) true))
(assert
 (and (distinct cell_1_7 cell_2_7 cell_3_7 cell_4_7 cell_5_7 cell_6_7 cell_7_7 cell_8_7 cell_9_7) true))
(assert
 (and (distinct cell_1_8 cell_2_8 cell_3_8 cell_4_8 cell_5_8 cell_6_8 cell_7_8 cell_8_8 cell_9_8) true))
(assert
 (and (distinct cell_1_9 cell_2_9 cell_3_9 cell_4_9 cell_5_9 cell_6_9 cell_7_9 cell_8_9 cell_9_9) true))
(assert
 (and (distinct cell_1_1 cell_1_2 cell_1_3 cell_2_1 cell_2_2 cell_2_3 cell_3_1 cell_3_2 cell_3_3) true))
(assert
 (and (distinct cell_1_4 cell_1_5 cell_1_6 cell_2_4 cell_2_5 cell_2_6 cell_3_4 cell_3_5 cell_3_6) true))
(assert
 (and (distinct cell_1_7 cell_1_8 cell_1_9 cell_2_7 cell_2_8 cell_2_9 cell_3_7 cell_3_8 cell_3_9) true))
(assert
 (and (distinct cell_4_1 cell_4_2 cell_4_3 cell_5_1 cell_5_2 cell_5_3 cell_6_1 cell_6_2 cell_6_3) true))
(assert
 (and (distinct cell_4_4 cell_4_5 cell_4_6 cell_5_4 cell_5_5 cell_5_6 cell_6_4 cell_6_5 cell_6_6) true))
(assert
 (and (distinct cell_4_7 cell_4_8 cell_4_9 cell_5_7 cell_5_8 cell_5_9 cell_6_7 cell_6_8 cell_6_9) true))
(assert
 (and (distinct cell_7_1 cell_7_2 cell_7_3 cell_8_1 cell_8_2 cell_8_3 cell_9_1 cell_9_2 cell_9_3) true))
(assert
 (and (distinct cell_7_4 cell_7_5 cell_7_6 cell_8_4 cell_8_5 cell_8_6 cell_9_4 cell_9_5 cell_9_6) true))
(assert
 (and (distinct cell_7_7 cell_7_8 cell_7_9 cell_8_7 cell_8_8 cell_8_9 cell_9_7 cell_9_8 cell_9_9) true))
(assert
 (let (($x4199 (and (distinct cell_5_9 cell_6_8 cell_7_7 cell_8_6) true)))
 (let (($x4059 (and (distinct cell_2_9 cell_3_8 cell_4_7 cell_5_6 cell_6_5 cell_7_4 cell_8_3 cell_9_2) true)))
 (let (($x3168 (and (distinct cell_1_8 cell_2_7 cell_3_6 cell_4_5 cell_5_4 cell_6_3 cell_7_2 cell_8_1) true)))
 (let (($x4028 (and (distinct cell_1_5 cell_2_4 cell_3_3 cell_4_2) true)))
 (let (($x235 (and (distinct cell_5_1 cell_6_2 cell_7_3 cell_8_4) true)))
 (let (($x4526 (and (distinct cell_2_1 cell_3_2 cell_4_3 cell_5_4 cell_6_5 cell_7_6 cell_8_7 cell_9_8) true)))
 (let (($x750 (and (distinct cell_1_2 cell_2_3 cell_3_4 cell_4_5 cell_5_6 cell_6_7 cell_7_8 cell_8_9) true)))
 (let (($x2812 (and (distinct cell_1_5 cell_2_6 cell_3_7 cell_4_8) true)))
 (and $x2812 $x750 $x4526 $x235 $x4028 $x3168 $x4059 $x4199))))))))))
(assert
 (and (distinct cell_3_1 2) true))
(check-sat)
